NAME : traveling-santa-2018-prime-paths.28653.tour
COMMENT : Length = 28653
COMMENT : Found by LKH [Keld Helsgaun] Sun Jun 12 20:00:17 2022
TYPE : TOUR
DIMENSION : 100
TOUR_SECTION
1
41
24
67
52
57
88
20
4
75
91
53
68
62
22
29
59
43
8
71
86
72
19
44
28
2
9
37
85
50
3
26
33
13
5
100
74
49
89
63
42
97
66
64
23
32
55
95
54
82
87
78
94
16
17
31
96
40
83
92
58
80
35
65
56
7
69
98
30
45
12
25
6
61
27
38
46
14
34
70
21
15
81
36
90
99
48
39
73
10
79
84
77
11
76
93
18
51
60
47
-1
EOF
